NAME: Random ATSP Instance
TYPE: ATSP
DIMENSION: 13
EDGE_WEIGHT_TYPE: EXPLICIT
EDGE_WEIGHT_FORMAT: FULL_MATRIX
EDGE_WEIGHT_SECTION
9999 19 3 9 13 3 20 12 14 19 16 4 4
3 9999 11 17 10 11 10 18 16 2 11 5 16
17 7 9999 20 7 10 19 8 16 16 14 14 12
14 2 7 9999 1 20 16 12 12 1 12 1 16
6 11 10 3 9999 6 11 13 5 20 11 7 4
1 19 17 20 15 9999 7 20 6 13 1 19 20
5 5 14 3 12 10 9999 15 7 10 17 15 13
5 9 8 2 20 10 10 9999 15 1 10 5 13
6 6 12 13 16 9 13 6 9999 12 7 13 11
14 18 8 19 3 12 6 8 19 9999 8 9 14
19 18 6 16 11 19 18 11 1 1 9999 1 15
6 17 14 20 17 6 4 19 12 9 1 9999 13
2 7 16 16 5 7 1 4 2 11 5 9 9999
EOF
